p edge 45 360
1 2
1 3
1 4
1 5
1 6
1 7
1 8
1 9
1 10
1 11
1 12
1 13
1 14
1 15
1 16
1 17
2 3
2 4
2 5
2 6
2 7
2 8
2 9
2 10
2 18
2 19
2 20
2 21
2 22
2 23
2 24
3 4
3 5
3 6
3 7
3 8
3 9
3 11
3 18
3 25
3 26
3 27
3 28
3 29
3 30
4 5
4 6
4 7
4 8
4 9
4 12
4 19
4 25
4 31
4 32
4 33
4 34
4 35
5 6
5 7
5 8
5 9
5 13
5 20
5 26
5 31
5 36
5 37
5 38
5 39
6 7
6 8
6 9
6 14
6 21
6 27
6 32
6 36
6 40
6 41
6 42
7 8
7 9
7 15
7 22
7 28
7 33
7 37
7 40
7 43
7 44
8 9
8 16
8 23
8 29
8 34
8 38
8 41
8 43
8 45
9 17
9 24
9 30
9 35
9 39
9 42
9 44
9 45
10 11
10 12
10 13
10 14
10 15
10 16
10 17
10 18
10 19
10 20
10 21
10 22
10 23
10 24
11 12
11 13
11 14
11 15
11 16
11 17
11 18
11 25
11 26
11 27
11 28
11 29
11 30
12 13
12 14
12 15
12 16
12 17
12 19
12 25
12 31
12 32
12 33
12 34
12 35
13 14
13 15
13 16
13 17
13 20
13 26
13 31
13 36
13 37
13 38
13 39
14 15
14 16
14 17
14 21
14 27
14 32
14 36
14 40
14 41
14 42
15 16
15 17
15 22
15 28
15 33
15 37
15 40
15 43
15 44
16 17
16 23
16 29
16 34
16 38
16 41
16 43
16 45
17 24
17 30
17 35
17 39
17 42
17 44
17 45
18 19
18 20
18 21
18 22
18 23
18 24
18 25
18 26
18 27
18 28
18 29
18 30
19 20
19 21
19 22
19 23
19 24
19 25
19 31
19 32
19 33
19 34
19 35
20 21
20 22
20 23
20 24
20 26
20 31
20 36
20 37
20 38
20 39
21 22
21 23
21 24
21 27
21 32
21 36
21 40
21 41
21 42
22 23
22 24
22 28
22 33
22 37
22 40
22 43
22 44
23 24
23 29
23 34
23 38
23 41
23 43
23 45
24 30
24 35
24 39
24 42
24 44
24 45
25 26
25 27
25 28
25 29
25 30
25 31
25 32
25 33
25 34
25 35
26 27
26 28
26 29
26 30
26 31
26 36
26 37
26 38
26 39
27 28
27 29
27 30
27 32
27 36
27 40
27 41
27 42
28 29
28 30
28 33
28 37
28 40
28 43
28 44
29 30
29 34
29 38
29 41
29 43
29 45
30 35
30 39
30 42
30 44
30 45
31 32
31 33
31 34
31 35
31 36
31 37
31 38
31 39
32 33
32 34
32 35
32 36
32 40
32 41
32 42
33 34
33 35
33 37
33 40
33 43
33 44
34 35
34 38
34 41
34 43
34 45
35 39
35 42
35 44
35 45
36 37
36 38
36 39
36 40
36 41
36 42
37 38
37 39
37 40
37 43
37 44
38 39
38 41
38 43
38 45
39 42
39 44
39 45
40 41
40 42
40 43
40 44
41 42
41 43
41 45
42 44
42 45
43 44
43 45
44 45
